100
100
69
69
69
67
67
67
67
67
67
65
65
64
62
61
61
60
60
59
58
57
57
56
56
55
55
55
55
55
54
54
53
52
52
52
49
48
48
47
47
46
46
45
44
44
43
41
40
39
38
37
37
37
37
36
35
35
34
34
34
32
32
32
32
32
31
31
31
30
30
29
29
29
28
28
27
26
25
24
23
23
22
22
22
21
21
18
17
17
16
16
15
15
15
14
14
13
12
12
12
11
